solution status: gap limit reached
objective value:                          28501.73417
y#7                                                 1 	(obj:5700)
y#11                                                1 	(obj:5700)
y#19                                                1 	(obj:5700)
y#35                                                1 	(obj:5700)
y#49                                                1 	(obj:5700)
x#1#49                                              1 	(obj:0.02057)
x#2#7                                               1 	(obj:0.08772)
x#3#19                                              1 	(obj:0.07157)
x#4#11                                              1 	(obj:0.0221)
x#5#19                                              1 	(obj:0.00884)
x#6#49                                              1 	(obj:0.03128)
x#7#7                                               1 	(obj:0.04522)
x#8#49                                              1 	(obj:0.01394)
x#9#19                                              1 	(obj:0.01836)
x#10#7                                              1 	(obj:0.03723)
x#11#7                                              1 	(obj:0.02261)
x#12#7                                              1 	(obj:0.0476)
x#13#35                                             1 	(obj:0.02635)
x#14#49                                             1 	(obj:0.03196)
x#15#49                                             1 	(obj:0.01666)
x#16#11                                             1 	(obj:0.04131)
x#17#7                                              1 	(obj:0.05117)
x#18#49                                             1 	(obj:0.04267)
x#19#7                                              1 	(obj:0.01649)
x#20#35                                             1 	(obj:0.0561)
x#21#11                                             1 	(obj:0.01751)
x#22#35                                             1 	(obj:0.04556)
x#23#11                                             1 	(obj:0.0476)
x#24#35                                             1 	(obj:0.01445)
x#25#35                                             1 	(obj:0.03961)
x#26#35                                             1 	(obj:0.0068)
x#27#7                                              1 	(obj:0.03043)
x#28#49                                             1 	(obj:0.02125)
x#29#35                                             1 	(obj:0.02414)
x#30#19                                             1 	(obj:0.0408)
x#31#49                                             1 	(obj:0.02006)
x#32#11                             0.999999999999999 	(obj:0.02023)
x#33#49                                             1 	(obj:0.00646)
x#34#19                                             1 	(obj:0.00799)
x#35#11                                             1 	(obj:0.05406)
x#36#11                                             1 	(obj:0.03961)
x#37#11                                             1 	(obj:0.01054)
x#38#7                                              1 	(obj:0.01479)
x#39#7                                              1 	(obj:0.01241)
x#40#19                                             1 	(obj:0.03502)
x#41#19                                             1 	(obj:0.02822)
x#42#49                                             1 	(obj:0.05457)
x#43#35                                             1 	(obj:0.00901)
x#44#19                                             1 	(obj:0.04012)
x#45#19                                             1 	(obj:0.04675)
x#46#11                                             1 	(obj:0.09673)
x#47#19                                             1 	(obj:0.00765)
x#48#11                                             1 	(obj:0.01054)
x#49#35                                             1 	(obj:0.01071)
x#50#49                                             1 	(obj:0.02516)
x#51#7                                              1 	(obj:0.05185)
x#52#35                                             1 	(obj:0.00051)
x#53#11                                             1 	(obj:0.01292)
x#54#19                                             1 	(obj:0.03842)
x#55#11                                             1 	(obj:0.05729)
x#56#35                                             1 	(obj:0.02465)
